c Result of efficient AIG-to-CNF conversion using package CNF
p cnf 536 1935
-2 3 -441 -446 451 0
-2 3 441 446 451 0
2 -451 0
2 -441 446 0
2 -3 0
2 441 -446 0
-3 4 242 -395 -418 0
-3 -4 -242 -395 -418 0
-3 4 242 395 418 0
-3 -4 -242 395 418 0
3 4 -242 0
3 -4 242 0
3 395 -418 0
3 -395 418 0
4 -531 5 -223 0
4 531 5 -16 0
-4 -5 0
-4 -531 223 0
-4 531 16 0
-5 6 12 14 15 0
5 -15 0
5 -6 0
5 -14 0
5 -12 0
-6 528 529 7 9 0
6 -528 0
6 -9 0
6 -7 0
6 -529 0
-7 520 526 527 8 0
7 -8 0
7 -527 0
7 -520 0
7 -526 0
-8 524 525 530 0
8 -524 0
8 -530 0
8 -525 0
-9 516 517 10 11 0
9 -516 0
9 -11 0
9 -10 0
9 -517 0
-10 521 522 523 0
10 -521 0
10 -523 0
10 -522 0
-11 512 513 518 519 0
11 -519 0
11 -518 0
11 -512 0
11 -513 0
-12 510 514 515 13 0
12 -13 0
12 -515 0
12 -510 0
12 -514 0
-13 508 509 0
13 -508 0
13 -509 0
-14 504 511 0
14 -504 0
14 -511 0
-15 505 506 507 0
15 -505 0
15 -507 0
15 -506 0
-16 532 17 0
-16 -532 -207 0
-16 -532 183 0
16 532 -17 0
16 -532 -183 207 0
-17 -533 18 0
-17 533 145 0
-17 -533 -114 0
17 533 -145 0
17 -533 -18 114 0
-18 534 -535 92 0
-18 534 535 19 0
18 -534 0
18 -535 -92 0
18 535 -19 0
19 20 -23 49 0
19 -20 -42 49 0
-19 -49 0
-19 20 23 0
-19 -20 42 0
20 -499 21 0
20 499 -21 0
-20 499 21 0
-20 -499 -21 0
-21 500 22 0
21 -500 0
21 -22 0
-22 501 502 503 0
22 -501 0
22 -503 0
22 -502 0
-23 -24 35 0
-23 24 25 0
23 24 -25 0
23 -24 -35 0
24 -500 22 0
24 500 -22 0
-24 500 22 0
-24 -500 -22 0
25 26 -28 0
25 -26 -32 0
-25 -26 32 0
-25 26 28 0
26 -501 27 0
26 501 -27 0
-26 501 27 0
-26 -501 -27 0
-27 502 503 0
27 -502 0
27 -503 0
28 29 -30 0
28 -29 -31 0
-28 -29 31 0
-28 29 30 0
29 502 -503 0
29 -502 503 0
-29 -502 -503 0
-29 502 503 0
30 -494 503 0
30 -493 -503 0
-30 494 503 0
-30 493 -503 0
31 -492 503 0
31 -491 -503 0
-31 492 503 0
-31 491 -503 0
32 29 -33 0
32 -29 -34 0
-32 -29 34 0
-32 29 33 0
33 -490 503 0
33 -489 -503 0
-33 490 503 0
-33 489 -503 0
34 -488 503 0
34 -487 -503 0
-34 488 503 0
-34 487 -503 0
35 26 -36 0
35 -26 -39 0
-35 -26 39 0
-35 26 36 0
36 29 -37 0
36 -29 -38 0
-36 -29 38 0
-36 29 37 0
37 -486 503 0
37 -485 -503 0
-37 486 503 0
-37 485 -503 0
38 -484 503 0
38 -483 -503 0
-38 484 503 0
-38 483 -503 0
39 29 -40 0
39 -29 -41 0
-39 -29 41 0
-39 29 40 0
40 -482 503 0
40 -481 -503 0
-40 482 503 0
-40 481 -503 0
41 -480 503 0
41 -479 -503 0
-41 480 503 0
-41 479 -503 0
42 24 -43 0
-42 -24 0
-42 43 0
43 26 -44 0
43 -26 -47 0
-43 -26 47 0
-43 26 44 0
44 29 -45 0
44 -29 -46 0
-44 -29 46 0
-44 29 45 0
45 -478 503 0
45 -477 -503 0
-45 478 503 0
-45 477 -503 0
46 -476 503 0
46 -475 -503 0
-46 476 503 0
-46 475 -503 0
47 29 -48 0
47 -472 503 -29 0
-47 29 48 0
-47 472 -29 0
-47 -503 -29 0
48 -474 503 0
48 -473 -503 0
-48 474 503 0
-48 473 -503 0
-49 50 89 90 91 0
49 -91 0
49 -90 0
49 -50 0
49 -89 0
-50 51 68 72 75 0
50 -75 0
50 -51 0
50 -72 0
50 -68 0
-51 476 477 52 67 0
-51 -476 -477 -52 67 0
51 -476 52 0
51 477 -52 0
51 -67 0
51 476 -477 0
-52 478 53 0
52 -478 0
52 -53 0
-53 479 54 0
53 -479 0
53 -54 0
-54 480 55 0
54 -480 0
54 -55 0
-55 481 56 0
55 -481 0
55 -56 0
-56 482 57 0
56 -482 0
56 -57 0
-57 483 58 0
57 -483 0
57 -58 0
-58 484 59 0
58 -484 0
58 -59 0
-59 485 60 0
59 -485 0
59 -60 0
-60 486 61 0
60 -486 0
60 -61 0
-61 62 63 65 66 0
61 -66 0
61 -62 0
61 -65 0
61 -63 0
-62 499 21 0
62 -499 0
62 -21 0
-63 495 496 497 64 0
63 -64 0
63 -497 0
63 -495 0
63 -496 0
-64 491 492 498 0
64 -491 0
64 -498 0
64 -492 0
-65 487 493 494 0
65 -487 0
65 -494 0
65 -493 0
-66 488 489 490 0
66 -488 0
66 -490 0
66 -489 0
67 -481 56 0
67 481 -56 0
-67 481 56 0
-67 -481 -56 0
68 -474 69 0
68 474 -69 0
-68 474 69 0
-68 -474 -69 0
-69 475 70 0
69 -475 0
69 -70 0
-70 476 71 0
70 -476 0
70 -71 0
-71 477 52 0
71 -477 0
71 -52 0
-72 472 73 0
-72 -472 -73 0
72 -472 73 0
72 472 -73 0
-73 473 74 0
73 -473 0
73 -74 0
-74 474 69 0
74 -474 0
74 -69 0
-75 76 77 78 79 0
75 -79 0
75 -78 0
75 -76 0
75 -77 0
76 -478 53 0
76 478 -53 0
-76 478 53 0
-76 -478 -53 0
77 -480 55 0
77 480 -55 0
-77 480 55 0
-77 -480 -55 0
78 -482 57 0
78 482 -57 0
-78 482 57 0
-78 -482 -57 0
-79 80 85 86 0
79 -86 0
79 -85 0
79 -80 0
80 -61 83 0
80 62 -61 0
80 -61 81 0
-80 61 0
-80 -62 -81 -83 0
81 -495 -496 -497 -82 0
-81 82 0
-81 495 0
-81 497 0
-81 496 0
82 -491 -492 -498 0
-82 491 0
-82 492 0
-82 498 0
83 -488 -489 -490 -84 0
-83 84 0
-83 488 0
-83 490 0
-83 489 0
84 -487 -493 -494 0
-84 487 0
-84 493 0
-84 494 0
85 -484 59 0
85 484 -59 0
-85 484 59 0
-85 -484 -59 0
-86 87 88 0
86 -87 0
86 -88 0
-87 483 -486 -61 58 0
-87 483 486 61 58 0
-87 -483 486 61 -58 0
-87 -483 -486 -61 -58 0
87 -483 58 0
87 483 -58 0
87 -486 61 0
87 486 -61 0
88 -485 60 0
88 485 -60 0
-88 485 60 0
-88 -485 -60 0
89 -475 70 0
89 475 -70 0
-89 475 70 0
-89 -475 -70 0
90 -473 74 0
90 473 -74 0
-90 473 74 0
-90 -473 -74 0
91 -479 54 0
91 479 -54 0
-91 479 54 0
-91 -479 -54 0
92 -20 49 -108 0
92 20 49 -93 0
-92 -49 0
-92 -20 108 0
-92 20 93 0
-93 -24 101 0
-93 24 94 0
93 24 -94 0
93 -24 -101 0
94 26 -95 0
94 -26 -98 0
-94 -26 98 0
-94 26 95 0
95 29 -96 0
95 -29 -97 0
-95 -29 97 0
-95 29 96 0
96 -493 503 0
96 -492 -503 0
-96 493 503 0
-96 492 -503 0
97 -491 503 0
97 -490 -503 0
-97 491 503 0
-97 490 -503 0
98 29 -99 0
98 -29 -100 0
-98 -29 100 0
-98 29 99 0
99 -489 503 0
99 -488 -503 0
-99 489 503 0
-99 488 -503 0
100 -487 503 0
100 -486 -503 0
-100 487 503 0
-100 486 -503 0
101 26 -102 0
101 -26 -105 0
-101 -26 105 0
-101 26 102 0
102 29 -103 0
102 -29 -104 0
-102 -29 104 0
-102 29 103 0
103 -485 503 0
103 -484 -503 0
-103 485 503 0
-103 484 -503 0
104 -483 503 0
104 -482 -503 0
-104 483 503 0
-104 482 -503 0
105 29 -106 0
105 -29 -107 0
-105 -29 107 0
-105 29 106 0
106 -481 503 0
106 -480 -503 0
-106 481 503 0
-106 480 -503 0
107 -479 503 0
107 -478 -503 0
-107 479 503 0
-107 478 -503 0
108 24 -109 0
-108 -24 0
-108 109 0
109 26 -110 0
109 -26 -113 0
-109 -26 113 0
-109 26 110 0
110 29 -111 0
110 -29 -112 0
-110 -29 112 0
-110 29 111 0
111 -477 503 0
111 -476 -503 0
-111 477 503 0
-111 476 -503 0
112 -475 503 0
112 -474 -503 0
-112 475 503 0
-112 474 -503 0
113 -472 -503 29 0
113 -473 503 29 0
-113 -29 0
-113 473 503 0
-113 472 -503 0
114 -534 -535 127 0
114 -534 535 115 0
-114 534 0
-114 -535 -127 0
-114 535 -115 0
115 -20 49 -123 0
115 20 49 -116 0
-115 -49 0
-115 -20 123 0
-115 20 116 0
-116 -24 120 0
-116 24 117 0
116 24 -117 0
116 -24 -120 0
117 26 -118 0
117 -26 -119 0
-117 -26 119 0
-117 26 118 0
118 29 -31 0
118 -29 -33 0
-118 -29 33 0
-118 29 31 0
119 29 -34 0
119 -29 -37 0
-119 -29 37 0
-119 29 34 0
120 26 -121 0
120 -26 -122 0
-120 -26 122 0
-120 26 121 0
121 29 -38 0
121 -29 -40 0
-121 -29 40 0
-121 29 38 0
122 29 -41 0
122 -29 -45 0
-122 -29 45 0
-122 29 41 0
123 24 -124 0
-123 -24 0
-123 124 0
124 26 -125 0
124 -26 -126 0
-124 -26 126 0
-124 26 125 0
125 29 -46 0
125 -29 -48 0
-125 -29 48 0
-125 29 46 0
126 -472 503 29 0
-126 472 0
-126 -29 0
-126 -503 0
127 -20 128 139 0
127 128 -132 139 0
-127 -139 0
-127 -128 0
-127 20 132 0
-128 72 79 129 130 0
128 -130 0
128 -72 0
128 -129 0
128 -79 0
-129 76 77 78 0
129 -76 0
129 -78 0
129 -77 0
-130 91 131 0
130 -91 0
130 -131 0
-131 -476 -477 -52 0
-131 476 477 52 0
131 -476 52 0
131 477 -52 0
131 476 -477 0
132 24 -133 0
132 -24 -136 0
-132 -24 136 0
-132 24 133 0
133 26 -134 0
133 -26 -135 0
-133 -26 135 0
-133 26 134 0
134 29 -97 0
134 -29 -99 0
-134 -29 99 0
-134 29 97 0
135 29 -100 0
135 -29 -103 0
-135 -29 103 0
-135 29 100 0
136 26 -137 0
136 -26 -138 0
-136 -26 138 0
-136 26 137 0
137 29 -104 0
137 -29 -106 0
-137 -29 106 0
-137 29 104 0
138 29 -107 0
138 -29 -111 0
-138 -29 111 0
-138 29 107 0
-139 67 140 -141 0
-139 20 67 140 0
139 -140 0
139 -67 0
139 -20 141 0
-140 473 474 475 70 0
-140 -473 -474 -475 -70 0
140 474 -70 0
140 -473 70 0
140 -474 475 0
140 473 -475 0
141 24 -142 0
-141 -24 0
-141 142 0
142 26 -143 0
-142 -26 0
-142 143 0
143 29 -112 0
143 -29 -144 0
-143 -29 144 0
-143 29 112 0
144 -473 503 0
144 -472 -503 0
-144 473 503 0
-144 472 -503 0
145 534 -146 0
145 -534 -167 0
-145 -534 167 0
-145 534 146 0
146 535 49 -147 0
146 -535 49 -157 0
-146 -49 0
-146 -535 157 0
-146 535 147 0
-147 20 148 0
-147 -20 154 0
147 -20 -154 0
147 20 -148 0
-148 24 149 0
-148 -24 153 0
148 -24 -153 0
148 24 -149 0
-149 26 150 0
-149 -26 28 0
149 -26 -28 0
149 26 -150 0
150 29 -151 0
150 -29 -152 0
-150 -29 152 0
-150 29 151 0
151 -498 503 0
151 -497 -503 0
-151 498 503 0
-151 497 -503 0
152 -496 503 0
152 -495 -503 0
-152 496 503 0
-152 495 -503 0
153 26 -32 0
153 -26 -36 0
-153 -26 36 0
-153 26 32 0
154 24 -155 0
154 -24 -156 0
-154 -24 156 0
-154 24 155 0
155 26 -39 0
155 -26 -44 0
-155 -26 44 0
-155 26 39 0
156 26 -47 0
-156 -26 0
-156 47 0
-157 20 158 0
-157 -20 164 0
157 -20 -164 0
157 20 -158 0
-158 24 159 0
-158 -24 163 0
158 -24 -163 0
158 24 -159 0
-159 26 160 0
-159 -26 95 0
159 -26 -95 0
159 26 -160 0
160 29 -161 0
160 -29 -162 0
-160 -29 162 0
-160 29 161 0
161 -497 503 0
161 -496 -503 0
-161 497 503 0
-161 496 -503 0
162 -495 503 0
162 -494 -503 0
-162 495 503 0
-162 494 -503 0
163 26 -98 0
163 -26 -102 0
-163 -26 102 0
-163 26 98 0
164 24 -165 0
164 -24 -166 0
-164 -24 166 0
-164 24 165 0
165 26 -105 0
165 -26 -110 0
-165 -26 110 0
-165 26 105 0
166 26 -113 0
-166 -26 0
-166 113 0
167 -535 -176 0
167 535 49 -168 0
-167 -535 176 0
-167 535 -49 0
-167 535 168 0
-168 20 169 0
-168 -20 173 0
168 -20 -173 0
168 20 -169 0
-169 24 170 0
-169 -24 172 0
169 -24 -172 0
169 24 -170 0
-170 26 171 0
-170 -26 118 0
170 -26 -118 0
170 26 -171 0
171 -29 -30 0
171 29 -152 0
-171 29 152 0
-171 -29 30 0
172 26 -119 0
172 -26 -121 0
-172 -26 121 0
-172 26 119 0
173 24 -174 0
173 -24 -175 0
-173 -24 175 0
-173 24 174 0
174 26 -122 0
174 -26 -125 0
-174 -26 125 0
-174 26 122 0
175 -472 503 26 29 0
-175 -29 0
-175 -26 0
-175 472 0
-175 -503 0
176 -20 49 -181 0
176 20 49 -177 0
-176 -49 0
-176 -20 181 0
-176 20 177 0
-177 -24 180 0
-177 24 178 0
177 24 -178 0
177 -24 -180 0
178 -26 -134 0
178 26 -179 0
-178 26 179 0
-178 -26 134 0
179 -29 -96 0
179 29 -162 0
-179 29 162 0
-179 -29 96 0
180 26 -135 0
180 -26 -137 0
-180 -26 137 0
-180 26 135 0
181 24 -182 0
-181 -24 0
-181 182 0
182 26 -138 0
182 -26 -143 0
-182 -26 143 0
-182 26 138 0
-183 533 -534 193 0
-183 533 534 184 0
183 -533 0
183 -534 -193 0
183 534 -184 0
184 535 -185 0
184 -535 -189 0
-184 -535 189 0
-184 535 185 0
185 -20 128 187 0
185 128 -186 187 0
-185 -187 0
-185 -128 0
-185 20 186 0
186 24 -153 0
186 -24 -155 0
-186 -24 155 0
-186 24 153 0
-187 67 140 -188 0
-187 20 67 140 0
187 -140 0
187 -67 0
187 -20 188 0
188 24 -156 0
-188 -24 0
-188 156 0
189 -20 128 191 0
189 128 -190 191 0
-189 -191 0
-189 -128 0
-189 20 190 0
190 24 -163 0
190 -24 -165 0
-190 -24 165 0
-190 24 163 0
-191 67 140 -192 0
-191 20 67 140 0
191 -140 0
191 -67 0
191 -20 192 0
192 24 -166 0
-192 -24 0
-192 166 0
193 535 -194 0
193 -535 -197 0
-193 -535 197 0
-193 535 194 0
194 128 140 -195 196 0
-194 -196 0
-194 -128 0
-194 -140 0
-194 195 0
-195 20 -24 174 0
-195 20 24 172 0
195 -20 0
195 -24 -174 0
195 24 -172 0
-196 20 67 0
-196 24 67 -175 0
196 -67 0
196 -20 175 0
196 -20 -24 0
197 24 -180 198 0
197 -24 -182 198 0
-197 -198 0
-197 -24 182 0
-197 24 180 0
-198 199 77 200 202 0
198 -199 0
198 -202 0
198 -200 0
198 -77 0
199 -476 71 0
199 476 -71 0
-199 476 71 0
-199 -476 -71 0
-200 475 70 72 201 0
-200 -475 -70 72 201 0
200 -201 0
200 475 -70 0
200 -72 0
200 -475 70 0
-201 -473 -474 -69 0
-201 473 474 69 0
201 -473 69 0
201 474 -69 0
201 473 -474 0
-202 203 76 86 204 0
202 -203 0
202 -204 0
202 -86 0
202 -76 0
203 -477 52 0
203 477 -52 0
-203 477 52 0
-203 -477 -52 0
-204 67 78 205 206 0
204 -67 0
204 -206 0
204 -205 0
204 -78 0
-205 85 91 0
205 -85 0
205 -91 0
-206 20 80 0
206 -20 0
206 -80 0
207 -533 -534 218 0
207 -533 534 208 0
-207 533 0
-207 -534 -218 0
-207 534 -208 0
208 535 -209 0
208 -535 -216 0
-208 -535 216 0
-208 535 209 0
209 210 -211 212 0
-209 -210 0
-209 211 0
-209 -212 0
-210 67 206 0
210 -67 0
210 -206 0
211 24 -35 0
211 -24 -43 0
-211 -24 43 0
-211 24 35 0
-212 213 214 215 0
212 -213 0
212 -214 0
212 -215 0
-213 199 203 72 87 0
213 -199 0
213 -87 0
213 -72 0
213 -203 0
-214 88 129 0
214 -88 0
214 -129 0
-215 140 205 0
215 -140 0
215 -205 0
216 210 212 -217 0
-216 -210 0
-216 -212 0
-216 217 0
217 24 -101 0
217 -24 -109 0
-217 -24 109 0
-217 24 101 0
218 535 -219 0
218 -535 -221 0
-218 -535 221 0
-218 535 219 0
219 210 212 -220 0
-219 -210 0
-219 -212 0
-219 220 0
220 24 -120 0
220 -24 -124 0
-220 -24 124 0
-220 24 120 0
221 210 212 -222 0
-221 -210 0
-221 -212 0
-221 222 0
222 24 -136 0
222 -24 -142 0
-222 -24 142 0
-222 24 136 0
223 532 -224 0
223 -532 533 -238 0
-223 -532 -533 0
-223 532 224 0
-223 -532 238 0
224 533 -225 0
224 -533 -232 235 0
-224 -533 232 0
-224 533 225 0
-224 -533 -235 0
225 534 -226 0
225 -534 -229 0
-225 -534 229 0
-225 534 226 0
226 535 -227 0
226 -535 -228 0
-226 -535 228 0
-226 535 227 0
227 -154 210 212 0
-227 154 0
-227 -210 0
-227 -212 0
228 -164 210 212 0
-228 164 0
-228 -210 0
-228 -212 0
229 535 -230 0
229 -535 -231 0
-229 -535 231 0
-229 535 230 0
230 -173 210 212 0
-230 173 0
-230 -210 0
-230 -212 0
231 -181 210 212 0
-231 181 0
-231 -210 0
-231 -212 0
-232 534 -535 234 0
-232 534 535 233 0
232 -534 0
232 -535 -234 0
232 535 -233 0
233 -42 210 212 0
-233 42 0
-233 -210 0
-233 -212 0
234 -108 210 212 0
-234 108 0
-234 -210 0
-234 -212 0
235 -534 -535 237 0
235 -534 535 236 0
-235 534 0
-235 -535 -237 0
-235 535 -236 0
236 -123 210 212 0
-236 123 0
-236 -210 0
-236 -212 0
237 -141 210 212 0
-237 141 0
-237 -210 0
-237 -212 0
238 534 -535 -240 0
238 534 535 -239 0
-238 -534 0
-238 -535 240 0
-238 535 239 0
239 -188 210 212 0
-239 188 0
-239 -210 0
-239 -212 0
240 210 213 215 -241 0
-240 241 0
-240 -210 0
-240 -215 0
-240 -213 0
241 -192 214 0
-241 192 0
-241 -214 0
242 -20 49 -375 0
242 20 49 -243 0
-242 -49 0
-242 -20 375 0
-242 20 243 0
243 24 -244 0
243 -24 -354 368 0
-243 -24 354 0
-243 24 244 0
-243 -24 -368 0
244 26 -316 0
244 -26 -245 291 0
-244 -26 245 0
-244 26 316 0
-244 -26 -291 0
-245 -503 29 269 0
-245 503 29 246 0
245 -29 0
245 -503 -269 0
245 503 -246 0
246 -531 5 -262 0
246 531 5 -247 0
-246 -5 0
-246 -531 262 0
-246 531 247 0
247 532 -248 0
247 -532 -255 0
-247 -532 255 0
-247 532 248 0
248 533 -249 0
248 -533 -252 0
-248 -533 252 0
-248 533 249 0
249 534 -250 0
249 -534 -251 0
-249 -534 251 0
-249 534 250 0
250 -494 535 0
250 -493 -535 0
-250 494 535 0
-250 493 -535 0
251 -492 535 0
251 -491 -535 0
-251 492 535 0
-251 491 -535 0
252 534 -253 0
252 -534 -254 0
-252 -534 254 0
-252 534 253 0
253 -490 535 0
253 -489 -535 0
-253 490 535 0
-253 489 -535 0
254 -488 535 0
254 -487 -535 0
-254 488 535 0
-254 487 -535 0
255 533 -256 0
255 -533 -259 0
-255 -533 259 0
-255 533 256 0
256 534 -257 0
256 -534 -258 0
-256 -534 258 0
-256 534 257 0
257 -486 535 0
257 -485 -535 0
-257 486 535 0
-257 485 -535 0
258 -484 535 0
258 -483 -535 0
-258 484 535 0
-258 483 -535 0
259 534 -260 0
259 -534 -261 0
-259 -534 261 0
-259 534 260 0
260 -482 535 0
260 -481 -535 0
-260 482 535 0
-260 481 -535 0
261 -480 535 0
261 -479 -535 0
-261 480 535 0
-261 479 -535 0
262 532 -263 0
-262 -532 0
-262 263 0
263 533 -264 0
263 -533 -267 0
-263 -533 267 0
-263 533 264 0
264 534 -265 0
264 -534 -266 0
-264 -534 266 0
-264 534 265 0
265 -478 535 0
265 -477 -535 0
-265 478 535 0
-265 477 -535 0
266 -476 535 0
266 -475 -535 0
-266 476 535 0
-266 475 -535 0
267 534 -268 0
267 -472 -534 535 0
-267 534 268 0
-267 -534 -535 0
-267 472 -534 0
268 -474 535 0
268 -473 -535 0
-268 474 535 0
-268 473 -535 0
269 -531 5 -285 0
269 531 5 -270 0
-269 -5 0
-269 -531 285 0
-269 531 270 0
270 532 -271 0
270 -532 -278 0
-270 -532 278 0
-270 532 271 0
271 533 -272 0
271 -533 -275 0
-271 -533 275 0
-271 533 272 0
272 534 -273 0
272 -534 -274 0
-272 -534 274 0
-272 534 273 0
273 -493 535 0
273 -492 -535 0
-273 493 535 0
-273 492 -535 0
274 -491 535 0
274 -490 -535 0
-274 491 535 0
-274 490 -535 0
275 534 -276 0
275 -534 -277 0
-275 -534 277 0
-275 534 276 0
276 -489 535 0
276 -488 -535 0
-276 489 535 0
-276 488 -535 0
277 -487 535 0
277 -486 -535 0
-277 487 535 0
-277 486 -535 0
278 533 -279 0
278 -533 -282 0
-278 -533 282 0
-278 533 279 0
279 534 -280 0
279 -534 -281 0
-279 -534 281 0
-279 534 280 0
280 -485 535 0
280 -484 -535 0
-280 485 535 0
-280 484 -535 0
281 -483 535 0
281 -482 -535 0
-281 483 535 0
-281 482 -535 0
282 534 -283 0
282 -534 -284 0
-282 -534 284 0
-282 534 283 0
283 -481 535 0
283 -480 -535 0
-283 481 535 0
-283 480 -535 0
284 -479 535 0
284 -478 -535 0
-284 479 535 0
-284 478 -535 0
285 532 -286 0
-285 -532 0
-285 286 0
286 533 -287 0
286 -533 -290 0
-286 -533 290 0
-286 533 287 0
287 534 -288 0
287 -534 -289 0
-287 -534 289 0
-287 534 288 0
288 -477 535 0
288 -476 -535 0
-288 477 535 0
-288 476 -535 0
289 -475 535 0
289 -474 -535 0
-289 475 535 0
-289 474 -535 0
290 -472 534 -535 0
290 -473 534 535 0
-290 -534 0
-290 472 -535 0
-290 473 535 0
291 503 -29 292 0
291 -503 -29 304 0
-291 29 0
-291 -503 -304 0
-291 503 -292 0
292 -531 5 -300 0
292 531 5 -293 0
-292 -5 0
-292 -531 300 0
-292 531 293 0
293 532 -294 0
293 -532 -297 0
-293 -532 297 0
-293 532 294 0
294 533 -295 0
294 -533 -296 0
-294 -533 296 0
-294 533 295 0
295 534 -251 0
295 -534 -253 0
-295 -534 253 0
-295 534 251 0
296 534 -254 0
296 -534 -257 0
-296 -534 257 0
-296 534 254 0
297 533 -298 0
297 -533 -299 0
-297 -533 299 0
-297 533 298 0
298 534 -258 0
298 -534 -260 0
-298 -534 260 0
-298 534 258 0
299 534 -261 0
299 -534 -265 0
-299 -534 265 0
-299 534 261 0
300 532 -301 0
-300 -532 0
-300 301 0
301 533 -302 0
301 -533 -303 0
-301 -533 303 0
-301 533 302 0
302 534 -266 0
302 -534 -268 0
-302 -534 268 0
-302 534 266 0
303 -472 534 535 0
-303 472 0
-303 -535 0
-303 -534 0
304 -531 5 -312 0
304 531 5 -305 0
-304 -5 0
-304 -531 312 0
-304 531 305 0
305 532 -306 0
305 -532 -309 0
-305 -532 309 0
-305 532 306 0
306 533 -307 0
306 -533 -308 0
-306 -533 308 0
-306 533 307 0
307 534 -274 0
307 -534 -276 0
-307 -534 276 0
-307 534 274 0
308 534 -277 0
308 -534 -280 0
-308 -534 280 0
-308 534 277 0
309 533 -310 0
309 -533 -311 0
-309 -533 311 0
-309 533 310 0
310 534 -281 0
310 -534 -283 0
-310 -534 283 0
-310 534 281 0
311 534 -284 0
311 -534 -288 0
-311 -534 288 0
-311 534 284 0
312 532 -313 0
-312 -532 0
-312 313 0
313 533 -314 0
-313 -533 0
-313 314 0
314 534 -289 0
314 -534 -315 0
-314 -534 315 0
-314 534 289 0
315 -473 535 0
315 -472 -535 0
-315 473 535 0
-315 472 -535 0
316 29 -317 0
316 -29 -338 0
-316 -29 338 0
-316 29 317 0
317 503 5 -318 0
317 -503 5 -328 0
-317 -5 0
-317 -503 328 0
-317 503 318 0
-318 531 319 0
-318 -531 325 0
318 -531 -325 0
318 531 -319 0
-319 532 320 0
-319 -532 324 0
319 -532 -324 0
319 532 -320 0
-320 533 321 0
-320 -533 249 0
320 -533 -249 0
320 533 -321 0
321 534 -322 0
321 -534 -323 0
-321 -534 323 0
-321 534 322 0
322 -498 535 0
322 -497 -535 0
-322 498 535 0
-322 497 -535 0
323 -496 535 0
323 -495 -535 0
-323 496 535 0
-323 495 -535 0
324 533 -252 0
324 -533 -256 0
-324 -533 256 0
-324 533 252 0
325 532 -326 0
325 -532 -327 0
-325 -532 327 0
-325 532 326 0
326 533 -259 0
326 -533 -264 0
-326 -533 264 0
-326 533 259 0
327 533 -267 0
-327 -533 0
-327 267 0
-328 531 329 0
-328 -531 335 0
328 -531 -335 0
328 531 -329 0
-329 532 330 0
-329 -532 334 0
329 -532 -334 0
329 532 -330 0
-330 533 331 0
-330 -533 272 0
330 -533 -272 0
330 533 -331 0
331 534 -332 0
331 -534 -333 0
-331 -534 333 0
-331 534 332 0
332 -497 535 0
332 -496 -535 0
-332 497 535 0
-332 496 -535 0
333 -495 535 0
333 -494 -535 0
-333 495 535 0
-333 494 -535 0
334 533 -275 0
334 -533 -279 0
-334 -533 279 0
-334 533 275 0
335 532 -336 0
335 -532 -337 0
-335 -532 337 0
-335 532 336 0
336 533 -282 0
336 -533 -287 0
-336 -533 287 0
-336 533 282 0
337 533 -290 0
-337 -533 0
-337 290 0
338 -503 -347 0
338 503 5 -339 0
-338 -503 347 0
-338 503 -5 0
-338 503 339 0
-339 531 340 0
-339 -531 344 0
339 -531 -344 0
339 531 -340 0
-340 532 341 0
-340 -532 343 0
340 -532 -343 0
340 532 -341 0
-341 533 342 0
-341 -533 295 0
341 -533 -295 0
341 533 -342 0
342 -534 -250 0
342 534 -323 0
-342 534 323 0
-342 -534 250 0
343 533 -296 0
343 -533 -298 0
-343 -533 298 0
-343 533 296 0
344 532 -345 0
344 -532 -346 0
-344 -532 346 0
-344 532 345 0
345 533 -299 0
345 -533 -302 0
-345 -533 302 0
-345 533 299 0
346 -472 533 534 535 0
-346 -535 0
-346 -534 0
-346 472 0
-346 -533 0
347 -531 5 -352 0
347 531 5 -348 0
-347 -5 0
-347 -531 352 0
-347 531 348 0
348 532 -349 0
348 -532 -351 0
-348 -532 351 0
-348 532 349 0
349 -533 -307 0
349 533 -350 0
-349 533 350 0
-349 -533 307 0
350 -534 -273 0
350 534 -333 0
-350 534 333 0
-350 -534 273 0
351 533 -308 0
351 -533 -310 0
-351 -533 310 0
-351 533 308 0
352 532 -353 0
-352 -532 0
-352 353 0
353 533 -311 0
353 -533 -314 0
-353 -533 314 0
-353 533 311 0
-354 26 -29 362 0
-354 26 29 355 0
354 -26 0
354 -29 -362 0
354 29 -355 0
355 503 -356 0
355 -503 -359 0
-355 -503 359 0
-355 503 356 0
356 -531 5 -358 0
356 531 5 -357 0
-356 -5 0
-356 -531 358 0
-356 531 357 0
357 532 -324 0
357 -532 -326 0
-357 -532 326 0
-357 532 324 0
358 532 -327 0
-358 -532 0
-358 327 0
359 -531 5 -361 0
359 531 5 -360 0
-359 -5 0
-359 -531 361 0
-359 531 360 0
360 532 -334 0
360 -532 -336 0
-360 -532 336 0
-360 532 334 0
361 532 -337 0
-361 -532 0
-361 337 0
362 503 -363 0
362 -503 -366 0
-362 -503 366 0
-362 503 363 0
363 -531 5 -365 0
363 531 5 -364 0
-363 -5 0
-363 -531 365 0
-363 531 364 0
364 532 -343 0
364 -532 -345 0
-364 -532 345 0
-364 532 343 0
365 532 -346 0
-365 -532 0
-365 346 0
366 532 -351 367 0
366 -532 -353 367 0
-366 -367 0
-366 -532 353 0
-366 532 351 0
-367 531 5 0
367 -531 0
367 -5 0
368 -26 -29 372 0
368 -26 29 369 0
-368 26 0
-368 -29 -372 0
-368 29 -369 0
369 503 -370 0
369 -503 -371 0
-369 -503 371 0
-369 503 370 0
370 532 -255 367 0
370 -532 -263 367 0
-370 -367 0
-370 -532 263 0
-370 532 255 0
371 532 -278 367 0
371 -532 -286 367 0
-371 -367 0
-371 -532 286 0
-371 532 278 0
372 503 -373 0
372 -503 -374 0
-372 -503 374 0
-372 503 373 0
373 532 -297 367 0
373 -532 -301 367 0
-373 -367 0
-373 -532 301 0
-373 532 297 0
374 532 -309 367 0
374 -532 -313 367 0
-374 -367 0
-374 -532 313 0
-374 532 309 0
375 24 -376 0
375 -24 26 -390 0
-375 -24 -26 0
-375 24 376 0
-375 -24 390 0
376 26 -377 0
376 -26 -384 387 0
-376 -26 384 0
-376 26 377 0
-376 -26 -387 0
377 29 -378 0
377 -29 -381 0
-377 -29 381 0
-377 29 378 0
378 503 -379 0
378 -503 -380 0
-378 -503 380 0
-378 503 379 0
379 -325 367 0
-379 325 0
-379 -367 0
380 -335 367 0
-380 335 0
-380 -367 0
381 503 -382 0
381 -503 -383 0
-381 -503 383 0
-381 503 382 0
382 -344 367 0
-382 344 0
-382 -367 0
383 -352 367 0
-383 352 0
-383 -367 0
-384 -503 29 386 0
-384 503 29 385 0
384 -29 0
384 -503 -386 0
384 503 -385 0
385 -262 367 0
-385 262 0
-385 -367 0
386 -285 367 0
-386 285 0
-386 -367 0
387 503 -29 388 0
387 -503 -29 389 0
-387 29 0
-387 -503 -389 0
-387 503 -388 0
388 -300 367 0
-388 300 0
-388 -367 0
389 -312 367 0
-389 312 0
-389 -367 0
390 29 -391 0
390 503 -29 -394 0
-390 -503 -29 0
-390 29 391 0
-390 -29 394 0
391 503 -392 0
391 -503 -393 0
-391 -503 393 0
-391 503 392 0
392 -358 367 0
-392 358 0
-392 -367 0
393 -361 367 0
-393 361 0
-393 -367 0
394 -365 367 0
-394 365 0
-394 -367 0
395 -531 5 -411 0
395 531 5 -396 0
-395 -5 0
-395 -531 411 0
-395 531 396 0
396 532 -397 0
396 -532 -404 0
-396 -532 404 0
-396 532 397 0
397 533 -398 0
397 -533 -401 0
-397 -533 401 0
-397 533 398 0
398 534 -399 0
398 -534 -400 0
-398 -534 400 0
-398 534 399 0
399 -535 -19 0
399 535 -176 0
-399 535 176 0
-399 -535 19 0
400 535 -92 0
400 -535 -115 0
-400 -535 115 0
-400 535 92 0
401 534 -402 0
401 -534 -403 0
-401 -534 403 0
-401 534 402 0
402 535 -127 0
402 -535 -185 0
-402 -535 185 0
-402 535 127 0
403 535 -189 0
403 -535 -194 0
-403 -535 194 0
-403 535 189 0
404 533 -405 0
404 -533 -408 0
-404 -533 408 0
-404 533 405 0
405 534 -406 0
405 -534 -407 0
-405 -534 407 0
-405 534 406 0
406 535 -197 0
406 -535 -209 0
-406 -535 209 0
-406 535 197 0
407 535 -216 0
407 -535 -219 0
-407 -535 219 0
-407 535 216 0
408 534 -409 0
408 -534 -410 0
-408 -534 410 0
-408 534 409 0
409 535 -221 0
409 -535 -227 0
-409 -535 227 0
-409 535 221 0
410 535 -228 0
410 -535 -230 0
-410 -535 230 0
-410 535 228 0
411 532 -533 -415 0
411 532 533 -412 0
-411 -532 0
-411 -533 415 0
-411 533 412 0
412 534 -413 0
412 -534 -414 0
-412 -534 414 0
-412 534 413 0
413 535 -231 0
413 -535 -233 0
-413 -535 233 0
-413 535 231 0
414 535 -234 0
414 -535 -236 0
-414 -535 236 0
-414 535 234 0
415 534 -416 0
415 -534 -417 0
-415 -534 417 0
-415 534 416 0
416 535 -237 0
416 -535 -239 0
-416 -535 239 0
-416 535 237 0
417 535 -240 0
-417 -535 0
-417 240 0
418 -20 49 -434 0
418 20 49 -419 0
-418 -49 0
-418 -20 434 0
-418 20 419 0
-419 -24 427 0
-419 24 420 0
419 24 -420 0
419 -24 -427 0
420 26 -421 0
420 -26 -424 0
-420 -26 424 0
-420 26 421 0
421 29 -422 0
421 -29 -423 0
-421 -29 423 0
-421 29 422 0
422 -503 -246 0
422 503 -347 0
-422 503 347 0
-422 -503 246 0
423 503 -269 0
423 -503 -292 0
-423 -503 292 0
-423 503 269 0
424 29 -425 0
424 -29 -426 0
-424 -29 426 0
-424 29 425 0
425 503 -304 0
425 -503 -356 0
-425 -503 356 0
-425 503 304 0
426 503 -359 0
426 -503 -363 0
-426 -503 363 0
-426 503 359 0
427 26 -428 0
427 -26 -431 0
-427 -26 431 0
-427 26 428 0
428 29 -429 0
428 -29 -430 0
-428 -29 430 0
-428 29 429 0
429 503 -366 0
429 -503 -370 0
-429 -503 370 0
-429 503 366 0
430 503 -371 0
430 -503 -373 0
-430 -503 373 0
-430 503 371 0
431 29 -432 0
431 -29 -433 0
-431 -29 433 0
-431 29 432 0
432 503 -374 0
432 -503 -379 0
-432 -503 379 0
-432 503 374 0
433 503 -380 0
433 -503 -382 0
-433 -503 382 0
-433 503 380 0
434 24 -26 -438 0
434 24 26 -435 0
-434 -24 0
-434 -26 438 0
-434 26 435 0
435 29 -436 0
435 -29 -437 0
-435 -29 437 0
-435 29 436 0
436 503 -383 0
436 -503 -385 0
-436 -503 385 0
-436 503 383 0
437 503 -386 0
437 -503 -388 0
-437 -503 388 0
-437 503 386 0
438 29 -439 0
438 -29 -440 0
-438 -29 440 0
-438 29 439 0
439 503 -389 0
439 -503 -392 0
-439 -503 392 0
-439 503 389 0
440 503 -393 0
440 -503 -394 0
-440 -503 394 0
-440 503 393 0
441 -531 5 -445 0
441 531 5 -442 0
-441 -5 0
-441 -531 445 0
-441 531 442 0
442 532 -443 0
442 -532 -444 0
-442 -532 444 0
-442 532 443 0
443 533 -401 0
443 -533 -405 0
-443 -533 405 0
-443 533 401 0
444 533 -408 0
444 -533 -412 0
-444 -533 412 0
-444 533 408 0
445 532 533 -415 0
-445 415 0
-445 -533 0
-445 -532 0
446 49 -447 0
-446 -49 0
-446 447 0
-447 20 -450 0
-447 -20 448 0
-447 20 449 0
447 -20 -448 0
447 20 -449 450 0
448 24 26 -438 0
-448 438 0
-448 -26 0
-448 -24 0
-449 24 -26 428 0
-449 24 26 424 0
449 -24 0
449 -26 -428 0
449 26 -424 0
450 -24 -26 435 0
450 -24 26 431 0
-450 24 0
-450 -26 -435 0
-450 26 -431 0
451 452 -462 0
451 -452 462 0
-451 -452 -462 0
-451 452 462 0
452 -531 5 -459 0
452 531 5 -453 0
-452 -5 0
-452 -531 459 0
-452 531 453 0
453 532 -454 0
453 -532 -457 458 0
-453 -532 457 0
-453 532 454 0
-453 -532 -458 0
454 533 -455 0
454 -533 -456 0
-454 -533 456 0
-454 533 455 0
455 534 -400 0
455 -534 -402 0
-455 -534 402 0
-455 534 400 0
456 534 -403 0
456 -534 -406 0
-456 -534 406 0
-456 534 403 0
-457 533 -534 409 0
-457 533 534 407 0
457 -533 0
457 -534 -409 0
457 534 -407 0
458 -533 -534 413 0
458 -533 534 410 0
-458 533 0
-458 -534 -413 0
-458 534 -410 0
459 532 -533 -461 0
459 532 533 -460 0
-459 -532 0
-459 -533 461 0
-459 533 460 0
460 534 -414 0
460 -534 -416 0
-460 -534 416 0
-460 534 414 0
461 534 -417 0
-461 -534 0
-461 417 0
462 -20 49 -469 0
462 20 49 -463 0
-462 -49 0
-462 -20 469 0
-462 20 463 0
-463 -24 467 0
-463 24 464 0
-463 -24 -468 0
463 24 -464 0
463 -24 -467 468 0
464 26 -465 0
464 -26 -466 0
-464 -26 466 0
-464 26 465 0
465 29 -423 0
465 -29 -425 0
-465 -29 425 0
-465 29 423 0
466 29 -426 0
466 -29 -429 0
-466 -29 429 0
-466 29 426 0
-467 26 -29 432 0
-467 26 29 430 0
467 -26 0
467 -29 -432 0
467 29 -430 0
468 -26 -29 436 0
468 -26 29 433 0
-468 26 0
-468 -29 -436 0
-468 29 -433 0
469 24 -26 -471 0
469 24 26 -470 0
-469 -24 0
-469 -26 471 0
-469 26 470 0
470 29 -437 0
470 -29 -439 0
-470 -29 439 0
-470 29 437 0
471 29 -440 0
-471 -29 0
-471 440 0
-536 0
2 0

